NAME : a280.tsp
TYPE : TOUR
DIMENSION : 280
TOUR_LENGTH : 2929.411137016701
TOUR_SECTION
1
280
3
279
278
248
249
247
245
244
243
2
242
241
240
239
246
231
232
238
237
236
235
234
233
227
228
229
230
251
250
252
209
253
254
255
256
257
258
259
260
261
262
263
264
265
266
267
268
269
270
133
19
132
134
135
136
137
138
139
148
147
146
143
142
141
140
205
206
208
207
210
211
226
225
224
223
222
221
220
219
218
217
216
215
214
213
212
204
203
202
200
144
145
199
201
196
195
194
197
198
193
192
191
190
189
188
187
186
185
184
183
182
181
180
179
149
150
178
176
177
151
152
156
153
120
119
157
158
159
160
175
161
162
163
164
165
166
167
168
170
172
171
174
173
106
107
105
103
102
169
101
100
99
98
97
96
95
78
77
94
93
92
91
90
104
108
109
89
88
112
110
111
113
114
115
117
118
61
60
43
42
41
40
39
35
38
49
48
47
46
45
44
59
62
63
64
65
85
86
116
87
84
83
82
81
80
79
76
75
74
73
72
71
66
67
70
69
68
58
57
56
55
54
53
52
51
50
37
36
34
33
32
31
30
125
124
123
122
121
155
154
130
131
20
21
128
129
127
126
29
28
27
26
22
25
23
24
18
17
16
271
272
273
274
275
276
277
4
5
6
7
8
9
15
14
13
12
11
10
-1
